Obtained from Transformation Matrix: 1.00000000 -1.00000000 -0.00000000 1.00000000 -0.00000000 0.00000000 0.00000000 -0.00000000 1.00000000
   30
Line-Mode
Reciprocal
   0.0000000000   0.0000000000   0.0000000000     GAMMA
   0.5000000000   0.0000000000   0.0000000000     M

   0.5000000000   0.0000000000   0.0000000000     M
   0.2777777778   0.1111111111   0.2500000000     k

   -0.1111111111   0.3888888889   0.2500000000     k'
   -0.0000000000   0.5000000000   0.0000000000     M'

   -0.0000000000   0.5000000000   0.0000000000     M'
   -0.3333333333   0.6666666667   0.0000000000     K'

   -0.3333333333   0.6666666667   0.0000000000     K'
   -0.1111111111   0.3888888889   0.2500000000     k'

   0.2777777778   0.1111111111   0.2500000000     k
   0.3333333333   0.3333333333   0.0000000000     K

   0.3333333333   0.3333333333   0.0000000000     K
   0.0000000000   0.0000000000   0.0000000000     GAMMA

   0.0000000000   0.0000000000   0.0000000000     GAMMA
   0.2777777778   0.1111111111   0.2500000000     k

   -0.1111111111   0.3888888889   0.2500000000     k'
   0.0000000000   0.0000000000   0.0000000000     GAMMA

   0.0000000000   0.0000000000   0.0000000000     GAMMA
   -0.0000000000   0.0000000000   0.5000000000     A'

   -0.0000000000   0.0000000000   0.5000000000     A'
   -0.1111111111   0.3888888889   0.2500000000     k'

   0.2777777778   0.1111111111   0.2500000000     k
   0.0000000000   0.0000000000   0.5000000000     A

   0.0000000000   0.0000000000   0.5000000000     A
   0.5000000000   0.0000000000   0.5000000000     L

   0.5000000000   0.0000000000   0.5000000000     L
   0.2777777778   0.1111111111   0.2500000000     k

   -0.1111111111   0.3888888889   0.2500000000     k'
   -0.0000000000   0.5000000000   0.5000000000     L'

   -0.0000000000   0.5000000000   0.5000000000     L'
   -0.3333333333   0.6666666667   0.5000000000     H'

   -0.3333333333   0.6666666667   0.5000000000     H'
   -0.1111111111   0.3888888889   0.2500000000     k'

   0.2777777778   0.1111111111   0.2500000000     k
   0.3333333333   0.3333333333   0.5000000000     H

   0.3333333333   0.3333333333   0.5000000000     H
   0.0000000000   0.0000000000   0.5000000000     A

   0.5000000000   0.0000000000   0.5000000000     L
   0.5000000000   0.0000000000   0.0000000000     M

   0.3333333333   0.3333333333   0.5000000000     H
   0.3333333333   0.3333333333   0.0000000000     K
