"Mn Te"                                 
   1.00000000000000     
     4.1475000380999996    0.0000000000000000    0.0000000000000000
    -2.0737500190999998    3.5918403952000002    0.0000000000000000
     0.0000000000000000    0.0000000000000000    6.7100000380999996
   Mn   Te
     2     2
Direct
  0.0000000000000000  0.0000000000000000  0.0000000000000000
  0.0000000000000000  0.0000000000000000  0.5000000000000000
  0.3333333333333333  0.6666666666666667  0.2500000000000000
  0.6666666666666667  0.3333333333333333  0.7500000000000000
 
  0.00000000E+00  0.00000000E+00  0.00000000E+00
  0.00000000E+00  0.00000000E+00  0.00000000E+00
  0.00000000E+00  0.00000000E+00  0.00000000E+00
  0.00000000E+00  0.00000000E+00  0.00000000E+00
